NAME          
ROWS
 N  OBJ
 L  c1
 L  c2
 L  c3
 L  c4
 L  c5
COLUMNS
    MARKER    'MARKER'                 'INTORG'
    x[1]      c1        658
    x[1]      c2        675
    x[1]      c3        528
    x[1]      c4        809
    x[1]      c5        277
    x[1]      OBJ       -83
    x[2]      c1        992
    x[2]      c2        403
    x[2]      c3        589
    x[2]      c4        509
    x[2]      c5        584
    x[2]      OBJ       -153
    x[3]      c1        952
    x[3]      c2        103
    x[3]      c3        290
    x[3]      c4        113
    x[3]      c5        119
    x[3]      OBJ       -175
    x[4]      c1        802
    x[4]      c2        944
    x[4]      c3        930
    x[4]      c4        289
    x[4]      c5        899
    x[4]      OBJ       -752
    x[5]      c1        513
    x[5]      c2        785
    x[5]      c3        296
    x[5]      c4        593
    x[5]      c5        243
    x[5]      OBJ       -249
    x[6]      c1        755
    x[6]      c2        127
    x[6]      c3        179
    x[6]      c4        707
    x[6]      c5        744
    x[6]      OBJ       -464
    x[7]      c1        848
    x[7]      c2        328
    x[7]      c3        357
    x[7]      c4        784
    x[7]      c5        271
    x[7]      OBJ       -760
    x[8]      c1        459
    x[8]      c2        419
    x[8]      c3        958
    x[8]      c4        758
    x[8]      c5        166
    x[8]      OBJ       -664
    x[9]      c1        821
    x[9]      c2        10
    x[9]      c3        260
    x[9]      c4        274
    x[9]      c5        819
    x[9]      OBJ       -26
    x[10]     c1        164
    x[10]     c2        871
    x[10]     c3        856
    x[10]     c4        381
    x[10]     c5        145
    x[10]     OBJ       -419
    x[11]     c1        346
    x[11]     c2        144
    x[11]     c3        452
    x[11]     c4        698
    x[11]     c5        471
    x[11]     OBJ       -939
    x[12]     c1        407
    x[12]     c2        222
    x[12]     c3        904
    x[12]     c4        859
    x[12]     c5        303
    x[12]     OBJ       -58
    x[13]     c1        457
    x[13]     c2        654
    x[13]     c3        595
    x[13]     c4        551
    x[13]     c5        94
    x[13]     OBJ       -215
    x[14]     c1        909
    x[14]     c2        878
    x[14]     c3        370
    x[14]     c4        491
    x[14]     c5        3
    x[14]     OBJ       -63
    x[15]     c1        693
    x[15]     c2        217
    x[15]     c3        854
    x[15]     c4        762
    x[15]     c5        290
    x[15]     OBJ       -239
    x[16]     c1        747
    x[16]     c2        286
    x[16]     c3        524
    x[16]     c4        71
    x[16]     c5        32
    x[16]     OBJ       -808
    x[17]     c1        415
    x[17]     c2        405
    x[17]     c3        583
    x[17]     c4        655
    x[17]     c5        20
    x[17]     OBJ       -322
    x[18]     c1        321
    x[18]     c2        216
    x[18]     c3        35
    x[18]     c4        170
    x[18]     c5        414
    x[18]     OBJ       -906
    x[19]     c1        194
    x[19]     c2        923
    x[19]     c3        393
    x[19]     c4        355
    x[19]     c5        438
    x[19]     OBJ       -713
    x[20]     c1        57
    x[20]     c2        474
    x[20]     c3        656
    x[20]     c4        983
    x[20]     c5        815
    x[20]     OBJ       -546
    x[21]     c1        7
    x[21]     c2        274
    x[21]     c3        397
    x[21]     c4        874
    x[21]     c5        973
    x[21]     OBJ       -326
    x[22]     c1        330
    x[22]     c2        142
    x[22]     c3        165
    x[22]     c4        863
    x[22]     c5        458
    x[22]     OBJ       -717
    x[23]     c1        620
    x[23]     c2        521
    x[23]     c3        104
    x[23]     c4        468
    x[23]     c5        894
    x[23]     OBJ       -415
    x[24]     c1        885
    x[24]     c2        564
    x[24]     c3        939
    x[24]     c4        902
    x[24]     c5        893
    x[24]     OBJ       -983
    x[25]     c1        503
    x[25]     c2        863
    x[25]     c3        971
    x[25]     c4        73
    x[25]     c5        459
    x[25]     OBJ       -297
    x[26]     c1        604
    x[26]     c2        876
    x[26]     c3        696
    x[26]     c4        888
    x[26]     c5        347
    x[26]     OBJ       -674
    x[27]     c1        388
    x[27]     c2        284
    x[27]     c3        307
    x[27]     c4        188
    x[27]     c5        623
    x[27]     OBJ       -161
    x[28]     c1        281
    x[28]     c2        543
    x[28]     c3        649
    x[28]     c4        497
    x[28]     c5        856
    x[28]     OBJ       -869
    x[29]     c1        266
    x[29]     c2        174
    x[29]     c3        261
    x[29]     c4        649
    x[29]     c5        780
    x[29]     OBJ       -474
    x[30]     c1        510
    x[30]     c2        937
    x[30]     c3        825
    x[30]     c4        721
    x[30]     c5        953
    x[30]     OBJ       -793
    x[31]     c1        5
    x[31]     c2        492
    x[31]     c3        390
    x[31]     c4        536
    x[31]     c5        251
    x[31]     OBJ       -906
    x[32]     c1        142
    x[32]     c2        128
    x[32]     c3        811
    x[32]     c4        860
    x[32]     c5        526
    x[32]     OBJ       -34
    x[33]     c1        715
    x[33]     c2        327
    x[33]     c3        744
    x[33]     c4        626
    x[33]     c5        393
    x[33]     OBJ       -512
    x[34]     c1        189
    x[34]     c2        304
    x[34]     c3        364
    x[34]     c4        258
    x[34]     c5        865
    x[34]     OBJ       -780
    x[35]     c1        403
    x[35]     c2        913
    x[35]     c3        36
    x[35]     c4        480
    x[35]     c5        890
    x[35]     OBJ       -852
    x[36]     c1        705
    x[36]     c2        946
    x[36]     c3        662
    x[36]     c4        640
    x[36]     c5        293
    x[36]     OBJ       -262
    x[37]     c1        571
    x[37]     c2        384
    x[37]     c3        572
    x[37]     c4        401
    x[37]     c5        955
    x[37]     OBJ       -976
    x[38]     c1        216
    x[38]     c2        828
    x[38]     c3        136
    x[38]     c4        260
    x[38]     c5        563
    x[38]     OBJ       -687
    x[39]     c1        587
    x[39]     c2        694
    x[39]     c3        191
    x[39]     c4        743
    x[39]     c5        273
    x[39]     OBJ       -137
    x[40]     c1        406
    x[40]     c2        220
    x[40]     c3        429
    x[40]     c4        264
    x[40]     c5        131
    x[40]     OBJ       -719
RHS
    rhs       c1        9922
    rhs       c2        9749
    rhs       c3        10129
    rhs       c4        11002
    rhs       c5        9762
RANGES
BOUNDS
 BV bounds    x[1]
 BV bounds    x[2]
 BV bounds    x[3]
 BV bounds    x[4]
 BV bounds    x[5]
 BV bounds    x[6]
 BV bounds    x[7]
 BV bounds    x[8]
 BV bounds    x[9]
 BV bounds    x[10]
 BV bounds    x[11]
 BV bounds    x[12]
 BV bounds    x[13]
 BV bounds    x[14]
 BV bounds    x[15]
 BV bounds    x[16]
 BV bounds    x[17]
 BV bounds    x[18]
 BV bounds    x[19]
 BV bounds    x[20]
 BV bounds    x[21]
 BV bounds    x[22]
 BV bounds    x[23]
 BV bounds    x[24]
 BV bounds    x[25]
 BV bounds    x[26]
 BV bounds    x[27]
 BV bounds    x[28]
 BV bounds    x[29]
 BV bounds    x[30]
 BV bounds    x[31]
 BV bounds    x[32]
 BV bounds    x[33]
 BV bounds    x[34]
 BV bounds    x[35]
 BV bounds    x[36]
 BV bounds    x[37]
 BV bounds    x[38]
 BV bounds    x[39]
 BV bounds    x[40]
ENDATA
